50
22561

465 919
286 363
553 77
248 623
740 929
286 225
7 276
41 174
909 675
310 915
951 400
187 908
656 995
325 9
831 16
632 94
557 607
950 547
909 42
937 318
89 786
842 688
106 621
451 148
948 672
590 37
533 288
730 559
95 414
7 877
832 541
882 712
90 517
491 377
421 793
751 723
595 439
361 666
407 191
911 617
208 896
589 195
275 660
421 499
920 612
238 645
308 841
99 112
79 249
769 145
